NAME : XML100_1356_15
DIMENSION : 101
NB_CLUSTERS : 5
CLUSTERING_ALG : KMeans
CLUSTERING_PARAMS : k(4)
CLUSTERS
1 0
2 1 6 8 12 15 17 25 27 28 32 34 35 36 37 42 44 45 46 48 49 50 51 53 54 56 58 59 63 66 68 69 71 76 77 80 81 84 85 86 87 92 96 99
3 2 13 20 33 47 55 57 60 72 74 88 94 97 98
4 3 9 11 14 21 22 23 24 26 30 40 41 61 62 64 65 67 73 79
5 4 5 7 10 16 18 19 29 31 38 39 43 52 70 75 78 82 83 89 90 91 93 95 100
EOF